50
16211

852 477
263 982
706 647
150 671
616 229
436 554
179 259
101 848
58 984
506 366
209 856
657 316
308 548
943 514
653 985
308 518
126 334
114 98
101 276
621 253
879 121
799 766
490 556
371 147
834 944
884 542
117 521
503 868
498 235
15 904
901 395
363 351
681 153
414 885
179 589
912 212
430 483
366 799
680 772
694 899
813 921
639 664
408 549
951 984
285 858
387 284
824 665
833 131
840 277
579 945
